TOUR_SECTION
133
168
22
52
116
57
105
30
34
38
98
82
169
187
8
182
158
13
83
93
10
137
24
193
6
125
121
200
1
78
59
51
104
48
41
81
183
66
180
15
161
23
128
47
21
89
50
197
155
159
119
46
85
63
12
84
131
114
31
18
178
67
113
44
138
45
142
191
60
103
39
120
42
99
194
106
122
90
69
150
95
112
7
73
16
149
108
147
123
185
61
100
139
176
2
124
167
141
14
65
36
135
173
195
190
129
88
25
175
58
56
184
91
40
144
107
117
79
3
115
37
19
192
188
11
151
32
109
72
27
199
127
28
68
186
171
9
163
76
160
162
33
174
118
126
164
29
71
136
74
110
130
4
146
153
156
145
132
170
26
92
43
20
102
64
148
177
94
179
111
55
157
189
5
35
49
196
154
166
198
87
80
172
75
54
53
17
96
143
86
140
134
77
152
101
62
181
70
97
165
-1
EOF